p tw 20 67
e 0 2
e 0 4
e 0 7
e 0 9
e 0 11
e 0 12
e 0 15
e 0 16
e 1 4
e 1 6
e 1 7
e 1 8
e 1 11
e 1 16
e 1 17
e 1 18
e 2 7
e 2 10
e 2 15
e 2 17
e 3 4
e 3 6
e 4 5
e 4 10
e 4 13
e 4 15
e 4 16
e 4 17
e 4 19
e 5 6
e 5 9
e 5 15
e 6 7
e 6 8
e 6 9
e 6 10
e 6 13
e 6 14
e 7 11
e 7 18
e 8 9
e 8 10
e 8 11
e 8 12
e 8 14
e 8 15
e 8 16
e 8 17
e 8 19
e 9 12
e 9 13
e 9 16
e 10 12
e 10 13
e 10 15
e 10 17
e 10 18
e 11 13
e 11 15
e 12 13
e 12 15
e 13 14
e 14 16
e 14 19
e 15 16
e 15 17
e 15 18
